Read MPS format model from file dat/rmp/DER_48_8192_30.mps
Reading time = 0.66 seconds
: 8240 rows, 39056 columns, 1697026 nonzeros
Gurobi Optimizer version 9.0.0 build v9.0.0rc2 (linux64)
Optimize a model with 8240 rows, 39056 columns and 1697026 nonzeros
Model fingerprint: 0x59b2a0f6
Coefficient statistics:
  Matrix range     [8e-05, 1e+01]
  Objective range  [4e-01, 1e+03]
  Bounds range     [5e+04, 5e+04]
  RHS range        [1e+00, 1e+00]
Ordering time: 0.01s

Barrier statistics:
 AA' NZ     : 3.748e+05
 Factor NZ  : 4.675e+05 (roughly 23 MBytes of memory)
 Factor Ops : 2.753e+07 (less than 1 second per iteration)
 Threads    : 1

                  Objective                Residual
Iter       Primal          Dual         Primal    Dual     Compl     Time
   0   1.40248543e+09 -1.18780520e+08  2.98e+07 1.84e-02  6.91e+05     0s
   1   2.47444431e+07 -1.99394759e+07  4.20e+05 1.82e-12  1.03e+04     0s
   2   2.61863214e+06 -7.75089377e+06  4.43e+04 3.64e-12  1.24e+03     1s
   3   6.34747412e+04 -4.67868896e+06  5.71e+02 1.82e-12  1.32e+02     1s
   4   2.49106780e+04 -1.22142630e+05  1.45e-10 3.64e-12  3.76e+00     1s
   5   2.48408640e+04  9.90993190e+03  1.56e-10 1.82e-12  3.82e-01     1s
   6   2.46630015e+04  2.20192899e+04  1.36e-10 3.64e-12  6.76e-02     1s
   7   2.44572676e+04  2.37187634e+04  2.47e-10 1.82e-12  1.89e-02     1s
   8   2.43365304e+04  2.39381351e+04  1.15e-09 1.82e-12  1.02e-02     1s
   9   2.42150447e+04  2.40546473e+04  7.81e-10 1.82e-12  4.10e-03     1s
  10   2.41600552e+04  2.40975193e+04  3.90e-10 1.82e-12  1.60e-03     1s
  11   2.41534129e+04  2.41044900e+04  2.62e-10 1.82e-12  1.25e-03     1s
  12   2.41392464e+04  2.41098598e+04  3.88e-10 1.82e-12  7.51e-04     1s
  13   2.41322265e+04  2.41147835e+04  6.74e-10 1.82e-12  4.46e-04     2s
  14   2.41284559e+04  2.41183697e+04  9.23e-10 1.82e-12  2.58e-04     2s
  15   2.41274975e+04  2.41199499e+04  7.37e-10 1.82e-12  1.93e-04     2s
  16   2.41260960e+04  2.41216415e+04  7.98e-10 1.82e-12  1.14e-04     2s
  17   2.41251863e+04  2.41227646e+04  1.19e-09 1.82e-12  6.19e-05     2s
  18   2.41248162e+04  2.41228535e+04  1.06e-09 1.82e-12  5.02e-05     2s
  19   2.41245330e+04  2.41231629e+04  1.50e-09 9.09e-13  3.50e-05     2s
  20   2.41241076e+04  2.41233301e+04  3.84e-09 1.82e-12  1.99e-05     2s
  21   2.41238575e+04  2.41234594e+04  3.47e-09 1.82e-12  1.02e-05     2s
  22   2.41237383e+04  2.41235483e+04  7.07e-09 9.09e-13  4.86e-06     2s
  23   2.41236389e+04  2.41236327e+04  6.83e-09 1.82e-12  1.59e-07     3s
  24   2.41236360e+04  2.41236357e+04  3.11e-07 1.82e-12  6.49e-09     3s
  25   2.41236358e+04  2.41236358e+04  1.81e-06 3.64e-12  1.79e-10     3s
  26   2.41236358e+04  2.41236358e+04  2.49e-07 5.46e-12  1.94e-13     3s

Barrier solved model in 26 iterations and 2.89 seconds
Optimal objective 2.41236358e+04

Solve time: 2.892182608
Barrier iterations: 26
